c FILE: i080-045

c SOURCE: From steinlib

c DESCRIPTION: Steinlib instance with 80 nodes and 632 edges.

p edge 80 632
e 1 2
e 1 11
e 1 15
e 1 16
e 1 25
e 1 28
e 1 30
e 1 36
e 1 38
e 1 41
e 1 45
e 1 46
e 1 55
e 1 56
e 1 59
e 1 67
e 1 70
e 2 4
e 2 13
e 2 23
e 2 42
e 2 59
e 2 67
e 2 70
e 2 71
e 2 73
e 2 77
e 2 80
e 3 15
e 3 27
e 3 28
e 3 29
e 3 31
e 3 40
e 3 46
e 3 48
e 3 49
e 3 56
e 3 58
e 3 64
e 3 76
e 3 79
e 4 12
e 4 14
e 4 15
e 4 22
e 4 33
e 4 42
e 4 45
e 4 47
e 4 48
e 4 51
e 4 53
e 4 58
e 4 59
e 4 60
e 4 62
e 4 65
e 4 68
e 4 71
e 5 12
e 5 13
e 5 19
e 5 29
e 5 31
e 5 33
e 5 39
e 5 45
e 5 46
e 5 52
e 5 54
e 5 59
e 5 67
e 5 72
e 5 77
e 6 7
e 6 9
e 6 11
e 6 16
e 6 26
e 6 28
e 6 32
e 6 33
e 6 34
e 6 35
e 6 38
e 6 48
e 6 55
e 6 56
e 6 57
e 6 64
e 6 65
e 6 68
e 6 72
e 6 76
e 6 79
e 7 8
e 7 19
e 7 27
e 7 31
e 7 37
e 7 41
e 7 45
e 7 59
e 7 65
e 7 73
e 8 9
e 8 13
e 8 21
e 8 22
e 8 28
e 8 44
e 8 45
e 8 46
e 8 47
e 8 51
e 8 54
e 8 61
e 8 64
e 8 75
e 8 80
e 9 12
e 9 14
e 9 17
e 9 38
e 9 39
e 9 40
e 9 43
e 9 47
e 9 51
e 9 58
e 9 60
e 9 63
e 9 64
e 10 13
e 10 17
e 10 18
e 10 19
e 10 20
e 10 31
e 10 33
e 10 40
e 10 41
e 10 50
e 10 51
e 10 57
e 10 76
e 10 78
e 11 15
e 11 22
e 11 36
e 11 38
e 11 46
e 11 47
e 11 51
e 11 54
e 11 55
e 11 57
e 11 58
e 11 59
e 11 64
e 11 67
e 11 72
e 11 74
e 11 76
e 11 78
e 12 14
e 12 15
e 12 26
e 12 45
e 12 48
e 12 51
e 12 53
e 12 59
e 12 63
e 13 29
e 13 30
e 13 32
e 13 40
e 13 47
e 13 48
e 13 53
e 13 56
e 13 58
e 13 65
e 13 73
e 13 74
e 13 76
e 14 17
e 14 19
e 14 22
e 14 24
e 14 30
e 14 34
e 14 37
e 14 43
e 14 44
e 14 49
e 14 52
e 14 56
e 14 68
e 14 79
e 15 17
e 15 19
e 15 22
e 15 23
e 15 27
e 15 40
e 15 49
e 15 51
e 15 55
e 15 56
e 15 59
e 15 61
e 15 62
e 15 69
e 15 71
e 15 72
e 15 76
e 15 77
e 16 20
e 16 22
e 16 27
e 16 32
e 16 34
e 16 45
e 16 46
e 16 48
e 16 51
e 16 63
e 16 67
e 16 68
e 16 77
e 16 78
e 17 30
e 17 32
e 17 34
e 17 35
e 17 43
e 17 49
e 17 67
e 17 71
e 17 73
e 17 76
e 17 77
e 18 21
e 18 22
e 18 30
e 18 38
e 18 39
e 18 40
e 18 47
e 18 51
e 18 52
e 18 57
e 18 65
e 18 74
e 18 77
e 19 20
e 19 22
e 19 24
e 19 28
e 19 32
e 19 41
e 19 49
e 19 64
e 19 67
e 19 73
e 20 30
e 20 31
e 20 32
e 20 40
e 20 46
e 20 50
e 20 58
e 20 65
e 20 74
e 20 76
e 20 77
e 20 78
e 21 34
e 21 44
e 21 49
e 21 51
e 21 68
e 21 72
e 21 73
e 21 74
e 22 32
e 22 34
e 22 35
e 22 37
e 22 45
e 22 50
e 22 51
e 22 53
e 22 60
e 22 68
e 22 72
e 22 79
e 23 24
e 23 31
e 23 41
e 23 43
e 23 54
e 23 55
e 23 62
e 23 67
e 24 25
e 24 28
e 24 30
e 24 32
e 24 39
e 24 48
e 24 50
e 24 62
e 24 69
e 24 73
e 25 35
e 25 37
e 25 39
e 25 40
e 25 42
e 25 53
e 25 54
e 25 55
e 25 60
e 25 64
e 25 65
e 25 68
e 26 30
e 26 32
e 26 37
e 26 39
e 26 42
e 26 43
e 26 54
e 26 55
e 26 59
e 26 60
e 26 70
e 26 76
e 27 29
e 27 30
e 27 37
e 27 42
e 27 45
e 27 47
e 27 65
e 27 67
e 27 68
e 27 70
e 27 71
e 27 80
e 28 31
e 28 36
e 28 37
e 28 39
e 28 42
e 28 43
e 28 56
e 28 60
e 28 63
e 28 64
e 28 68
e 28 69
e 28 73
e 28 78
e 29 32
e 29 36
e 29 37
e 29 67
e 29 71
e 29 73
e 29 75
e 29 77
e 30 31
e 30 32
e 30 34
e 30 36
e 30 45
e 30 46
e 30 58
e 30 59
e 30 64
e 30 72
e 31 52
e 31 56
e 31 70
e 31 74
e 31 76
e 32 37
e 32 39
e 32 42
e 32 44
e 32 45
e 32 51
e 32 52
e 32 56
e 32 57
e 32 59
e 32 65
e 32 66
e 32 67
e 32 77
e 33 36
e 33 47
e 33 48
e 33 51
e 33 56
e 33 60
e 33 65
e 33 73
e 33 76
e 33 77
e 34 38
e 34 44
e 34 49
e 34 50
e 34 53
e 34 55
e 34 56
e 34 57
e 34 58
e 34 62
e 34 75
e 34 78
e 35 42
e 35 44
e 35 47
e 35 53
e 35 55
e 35 57
e 35 58
e 35 59
e 35 63
e 35 76
e 35 78
e 36 41
e 36 42
e 36 43
e 36 44
e 36 51
e 36 59
e 36 75
e 36 78
e 36 80
e 37 39
e 37 40
e 37 43
e 37 50
e 37 52
e 37 54
e 37 59
e 37 70
e 37 76
e 38 41
e 38 43
e 38 51
e 38 54
e 38 56
e 38 58
e 38 64
e 38 71
e 38 73
e 38 74
e 38 76
e 38 77
e 39 40
e 39 52
e 39 54
e 39 62
e 39 70
e 39 76
e 40 53
e 40 71
e 40 74
e 41 49
e 41 56
e 41 62
e 41 64
e 41 69
e 41 73
e 41 78
e 41 79
e 42 50
e 42 58
e 42 59
e 42 60
e 42 61
e 42 70
e 42 73
e 42 80
e 43 52
e 43 54
e 43 55
e 43 58
e 43 65
e 43 70
e 43 71
e 43 74
e 43 77
e 44 46
e 44 50
e 44 51
e 44 52
e 44 53
e 44 56
e 44 66
e 44 67
e 44 78
e 44 80
e 45 48
e 45 56
e 45 59
e 45 61
e 45 62
e 45 80
e 46 57
e 46 59
e 46 66
e 47 57
e 47 60
e 47 75
e 47 79
e 48 57
e 48 62
e 48 63
e 48 64
e 48 66
e 48 69
e 49 53
e 49 60
e 49 74
e 50 56
e 50 61
e 50 67
e 51 62
e 51 74
e 52 55
e 52 64
e 52 67
e 52 68
e 52 71
e 52 72
e 52 73
e 52 75
e 52 76
e 52 78
e 53 55
e 53 61
e 53 64
e 53 65
e 53 66
e 53 71
e 53 73
e 54 56
e 54 67
e 54 71
e 54 73
e 55 56
e 55 63
e 55 66
e 55 67
e 55 68
e 55 69
e 55 71
e 55 74
e 56 57
e 56 60
e 56 74
e 56 79
e 57 62
e 57 65
e 57 68
e 57 74
e 57 77
e 58 62
e 58 66
e 58 68
e 58 71
e 58 80
e 59 60
e 59 64
e 59 69
e 59 70
e 59 76
e 60 72
e 60 74
e 60 75
e 60 78
e 60 80
e 61 64
e 61 65
e 61 72
e 61 78
e 61 79
e 63 66
e 63 67
e 63 71
e 63 76
e 63 80
e 64 72
e 64 77
e 64 80
e 65 70
e 65 78
e 66 75
e 66 79
e 67 70
e 67 71
e 67 72
e 67 74
e 67 75
e 67 80
e 68 69
e 68 79
e 68 80
e 69 74
e 69 77
e 70 73
e 70 76
e 70 80
e 71 72
e 71 73
e 71 74
e 72 73
e 72 76
e 72 78
e 75 80
e 76 79
e 78 80
